499 501 502 
559 561 562 
589 591 592 
619 621 622 
649 651 652 
681 683 684 
712 714 715 
742 744 745 
772 774 775 
802 804 805 
832 834 835 
862 864 865 
892 894 895 
922 924 925 
952 954 955 
982 984 985 
1012 1014 1015 
1042 1044 1045 
1072 1074 1075 
1100 1101 1102 
1129 1130 1131 
1159 1160 1161 
1189 1190 1191 
1219 1220 1221 
1249 1250 1251 
1279 1280 1281 
1339 1340 1341 
1399 1400 1401 
1459 1460 1461 
